decision_x1=[0,2];
decision_x2=[0,2];
decision_x3=[0,2];
decision_x4=[0,2];
decision_x5=[0,2];
decision_x6=[0,2];
decision_x7=[0,2];
decision_x8=[0,2];
decision_x9=[0,2];
decision_x10=[0,2];
decision_x11=[0,2];
decision_x12=[0,2];
random_y1=[0,2];
random_y2=[0,2];
random_y3=[0,2];
random_y4=[0,2];
random_y5=[0,2];
random_y6=[0,2];
random_y7=[0,2];
random_y8=[0,2];
random_y9=[0,2];
random_y10=[0,2];
random_y11=[0,2];
random_y12=[0,2];
constraint_x3_x2=[
0,0,13|
0,1,96|
0,2,50|
1,0,68|
1,1,49|
1,2,24|
2,0,68|
2,1,6.3|
2,2,14|
];
constraint_x5_x1=[
0,0,99|
0,1,80|
0,2,87|
1,0,74|
1,1,65|
1,2,13|
2,0,0.098|
2,1,93|
2,2,48|
];
constraint_x5_x2=[
0,0,67|
0,1,18|
0,2,99|
1,0,56|
1,1,60|
1,2,29|
2,0,32|
2,1,26|
2,2,7.1|
];
constraint_x5_x3=[
0,0,32|
0,1,19|
0,2,62|
1,0,13|
1,1,53|
1,2,83|
2,0,68|
2,1,41|
2,2,50|
];
constraint_x6_x2=[
0,0,53|
0,1,96|
0,2,38|
1,0,6.6|
1,1,42|
1,2,99|
2,0,13|
2,1,28|
2,2,14|
];
constraint_x6_x3=[
0,0,9.9|
0,1,91|
0,2,1.4|
1,0,44|
1,1,18|
1,2,94|
2,0,9.8|
2,1,85|
2,2,23|
];
constraint_x7_x3=[
0,0,8.5|
0,1,86|
0,2,96|
1,0,78|
1,1,7.2|
1,2,68|
2,0,55|
2,1,46|
2,2,67|
];
constraint_x7_x5=[
0,0,29|
0,1,84|
0,2,61|
1,0,72|
1,1,83|
1,2,39|
2,0,21|
2,1,80|
2,2,35|
];
constraint_x8_x2=[
0,0,85|
0,1,16|
0,2,41|
1,0,77|
1,1,39|
1,2,1e+02|
2,0,69|
2,1,64|
2,2,25|
];
constraint_x8_x3=[
0,0,32|
0,1,74|
0,2,25|
1,0,2.7|
1,1,87|
1,2,18|
2,0,83|
2,1,71|
2,2,95|
];
constraint_x8_x4=[
0,0,6.5|
0,1,61|
0,2,64|
1,0,99|
1,1,71|
1,2,81|
2,0,98|
2,1,17|
2,2,86|
];
constraint_x8_x5=[
0,0,96|
0,1,50|
0,2,88|
1,0,39|
1,1,60|
1,2,92|
2,0,1e+02|
2,1,98|
2,2,43|
];
constraint_x8_x6=[
0,0,29|
0,1,88|
0,2,35|
1,0,30|
1,1,92|
1,2,34|
2,0,39|
2,1,70|
2,2,33|
];
constraint_x8_x7=[
0,0,98|
0,1,26|
0,2,22|
1,0,50|
1,1,68|
1,2,0.99|
2,0,72|
2,1,68|
2,2,17|
];
constraint_x9_x2=[
0,0,76|
0,1,41|
0,2,61|
1,0,19|
1,1,8.7|
1,2,47|
2,0,50|
2,1,28|
2,2,81|
];
constraint_x9_x6=[
0,0,23|
0,1,36|
0,2,41|
1,0,72|
1,1,76|
1,2,3.6|
2,0,62|
2,1,80|
2,2,39|
];
constraint_x9_x8=[
0,0,96|
0,1,68|
0,2,57|
1,0,52|
1,1,23|
1,2,97|
2,0,95|
2,1,76|
2,2,91|
];
constraint_x10_x1=[
0,0,78|
0,1,95|
0,2,2.4|
1,0,8.2|
1,1,68|
1,2,85|
2,0,38|
2,1,8.2|
2,2,0.25|
];
constraint_x10_x2=[
0,0,63|
0,1,78|
0,2,82|
1,0,85|
1,1,55|
1,2,12|
2,0,90|
2,1,99|
2,2,62|
];
constraint_x10_x4=[
0,0,50|
0,1,31|
0,2,77|
1,0,48|
1,1,69|
1,2,47|
2,0,99|
2,1,62|
2,2,29|
];
constraint_x10_x6=[
0,0,54|
0,1,93|
0,2,90|
1,0,73|
1,1,73|
1,2,9.7|
2,0,21|
2,1,61|
2,2,20|
];
constraint_x10_x7=[
0,0,7.7|
0,1,68|
0,2,39|
1,0,21|
1,1,56|
1,2,72|
2,0,61|
2,1,51|
2,2,48|
];
constraint_x10_x8=[
0,0,92|
0,1,31|
0,2,93|
1,0,99|
1,1,81|
1,2,98|
2,0,89|
2,1,18|
2,2,15|
];
constraint_x10_x9=[
0,0,72|
0,1,54|
0,2,14|
1,0,39|
1,1,11|
1,2,7.4|
2,0,34|
2,1,43|
2,2,81|
];
constraint_x11_x3=[
0,0,47|
0,1,47|
0,2,97|
1,0,6|
1,1,36|
1,2,3.8|
2,0,77|
2,1,46|
2,2,16|
];
constraint_x11_x8=[
0,0,82|
0,1,7.1|
0,2,49|
1,0,93|
1,1,11|
1,2,56|
2,0,61|
2,1,83|
2,2,31|
];
constraint_x11_x10=[
0,0,15|
0,1,43|
0,2,2|
1,0,27|
1,1,73|
1,2,35|
2,0,30|
2,1,11|
2,2,56|
];
constraint_x12_x1=[
0,0,76|
0,1,72|
0,2,11|
1,0,24|
1,1,95|
1,2,66|
2,0,32|
2,1,82|
2,2,38|
];
constraint_x12_x3=[
0,0,78|
0,1,27|
0,2,93|
1,0,66|
1,1,17|
1,2,42|
2,0,60|
2,1,9.6|
2,2,48|
];
constraint_x12_x5=[
0,0,32|
0,1,3.3|
0,2,54|
1,0,31|
1,1,44|
1,2,50|
2,0,84|
2,1,55|
2,2,5.3|
];
constraint_x12_x6=[
0,0,6.5|
0,1,76|
0,2,99|
1,0,69|
1,1,61|
1,2,78|
2,0,36|
2,1,75|
2,2,29|
];
constraint_x12_x8=[
0,0,45|
0,1,51|
0,2,73|
1,0,17|
1,1,45|
1,2,21|
2,0,92|
2,1,58|
2,2,23|
];
constraint_x12_x11=[
0,0,86|
0,1,70|
0,2,72|
1,0,30|
1,1,31|
1,2,44|
2,0,79|
2,1,0.2|
2,2,9.1|
];
constraint_x1_y1=[
0,0,81|
0,1,85|
0,2,58|
1,0,91|
1,1,64|
1,2,46|
2,0,82|
2,1,87|
2,2,0.32|
];
constraint_x2_y2=[
0,0,56|
0,1,48|
0,2,12|
1,0,54|
1,1,70|
1,2,56|
2,0,16|
2,1,85|
2,2,63|
];
constraint_x3_y3=[
0,0,12|
0,1,48|
0,2,16|
1,0,68|
1,1,6.8|
1,2,34|
2,0,63|
2,1,12|
2,2,33|
];
constraint_x4_y4=[
0,0,67|
0,1,1.4|
0,2,61|
1,0,51|
1,1,52|
1,2,72|
2,0,95|
2,1,34|
2,2,1.1|
];
constraint_x5_y5=[
0,0,29|
0,1,74|
0,2,1.4|
1,0,84|
1,1,5|
1,2,29|
2,0,21|
2,1,39|
2,2,48|
];
constraint_x6_y6=[
0,0,40|
0,1,31|
0,2,75|
1,0,52|
1,1,35|
1,2,40|
2,0,87|
2,1,27|
2,2,22|
];
constraint_x7_y7=[
0,0,7.1|
0,1,30|
0,2,1.8|
1,0,67|
1,1,4.9|
1,2,12|
2,0,39|
2,1,75|
2,2,39|
];
constraint_x8_y8=[
0,0,90|
0,1,87|
0,2,8.3|
1,0,83|
1,1,65|
1,2,22|
2,0,50|
2,1,49|
2,2,31|
];
constraint_x9_y9=[
0,0,86|
0,1,11|
0,2,45|
1,0,68|
1,1,75|
1,2,48|
2,0,39|
2,1,71|
2,2,61|
];
constraint_x10_y10=[
0,0,61|
0,1,58|
0,2,14|
1,0,75|
1,1,93|
1,2,82|
2,0,58|
2,1,7.8|
2,2,66|
];
constraint_x11_y11=[
0,0,85|
0,1,57|
0,2,72|
1,0,28|
1,1,8.6|
1,2,98|
2,0,64|
2,1,60|
2,2,19|
];
constraint_x12_y12=[
0,0,25|
0,1,1e+02|
0,2,78|
1,0,47|
1,1,66|
1,2,69|
2,0,5.3|
2,1,31|
2,2,32|
];
initial_distribution_y1=[0.077,0.49,0.43];
initial_distribution_y2=[0.29,0.57,0.14];
initial_distribution_y3=[0.4,0.069,0.54];
initial_distribution_y4=[0.53,0.13,0.34];
initial_distribution_y5=[0.5,0.42,0.079];
initial_distribution_y6=[0.074,0.13,0.8];
initial_distribution_y7=[0.53,0.27,0.2];
initial_distribution_y8=[0.19,0.47,0.34];
initial_distribution_y9=[0.16,0.5,0.34];
initial_distribution_y10=[0.47,0.27,0.25];
initial_distribution_y11=[0.3,0.33,0.37];
initial_distribution_y12=[0.16,0.38,0.46];
transition_y1=[
0.33,0.35,0.32|
0.36,0.59,0.058|
0.32,0.18,0.5|
];
transition_y2=[
0.58,0.019,0.4|
0.42,0.25,0.33|
0.19,0.31,0.5|
];
transition_y3=[
0.49,0.17,0.34|
0.33,0.34,0.33|
0.39,0.21,0.4|
];
transition_y4=[
0.28,0.43,0.28|
0.22,0.13,0.66|
0.36,0.33,0.31|
];
transition_y5=[
0.49,0.01,0.5|
0.32,0.53,0.16|
0.07,0.41,0.52|
];
transition_y6=[
0.32,0.42,0.25|
0.58,0.061,0.36|
0.33,0.38,0.28|
];
transition_y7=[
0.21,0.56,0.22|
0.053,0.026,0.92|
0.51,0.31,0.18|
];
transition_y8=[
0.26,0.57,0.17|
0.18,0.21,0.61|
0.047,0.33,0.62|
];
transition_y9=[
0.42,0.3,0.27|
0.42,0.35,0.22|
0.29,0.69,0.028|
];
transition_y10=[
0.32,0.43,0.25|
0.5,0.083,0.41|
0.36,0.41,0.23|
];
transition_y11=[
0.37,0.43,0.2|
0.063,0.71,0.23|
0.18,0.24,0.58|
];
transition_y12=[
0.27,0.35,0.38|
0.34,0.4,0.26|
0.71,0.12,0.17|
];
